164272
0,57,75,23,101,73,13,46,60,102,34,74,31,6,48,36,69,93,77,2,100,37,104,103,66,40,10,94,53,70,35,95,59,38,72,47,84,17,52,83,32,81,50,99,98,67,49,25,33,8,82,56,22,91,79,88,92,11,18,41,80,71,44,24,85,45,76,5,68,87,12,30,64,51,4,54,28,29,97,105,96,7,39,55,19,15,63,89,16,20,61,21,1,62,3,14,90,78,42,86,43,58,65,27,26,9,0